c Reduced graph for p10 generated by Cyril Grelier
p edge 16 32
e 1 4
e 1 6
e 1 9
e 1 12
e 2 3
e 2 5
e 2 7
e 2 8
e 3 5
e 3 7
e 3 10
e 4 6
e 4 11
e 4 12
e 5 7
e 5 13
e 6 12
e 6 14
e 7 15
e 8 10
e 8 13
e 8 15
e 9 11
e 9 14
e 9 16
e 10 13
e 10 15
e 11 14
e 11 16
e 12 16
e 13 15
e 14 16
